% generated from topzoo.py
% number of edges; number of vertices
% note vertex numbering starts from 1, so 0 is remapped to 754
895 754
1 3
2 4
8 9
10 11
13 14
14 15
15 16
16 17
23 25
26 27
30 31
27 32
30 33
32 33
34 35
34 37
36 37
38 39
35 40
40 41
18 42
18 43
19 43
45 46
44 47
46 47
45 50
48 51
49 51
36 52
47 52
49 52
51 52
52 53
55 56
11 57
13 57
58 59
61 62
62 63
62 65
65 66
66 67
54 68
12 70
73 74
74 75
74 79
76 79
78 79
80 81
25 84
84 85
69 86
86 87
85 90
88 91
90 91
89 94
96 97
69 98
87 98
93 98
95 98
96 98
98 99
101 102
100 103
104 105
100 106
105 106
106 107
103 108
31 109
108 109
64 112
67 114
1 117
116 117
21 118
116 119
118 119
3 120
120 121
122 123
122 125
124 125
126 129
128 129
127 131
128 131
130 131
113 135
133 135
134 136
83 137
134 139
138 139
56 140
141 142
151 152
152 153
153 154
63 155
155 156
156 157
151 158
157 158
62 160
159 160
161 162
48 164
164 165
165 166
166 167
164 168
167 168
161 170
25 171
25 172
171 174
173 174
175 176
177 178
179 180
180 181
181 182
182 183
183 184
184 186
187 188
132 189
189 190
190 191
191 192
188 193
195 198
196 198
162 200
97 201
200 203
202 203
204 205
201 206
204 207
206 207
206 208
207 208
95 209
207 209
32 211
39 211
212 213
26 214
215 216
215 218
217 218
9 220
219 220
213 221
221 222
41 223
28 224
223 224
41 225
41 226
40 228
225 228
28 230
29 230
52 230
229 230
226 231
227 231
227 234
233 234
110 235
754 237
121 237
147 238
237 238
236 239
38 241
145 241
240 242
240 243
7 244
195 244
21 245
195 246
243 246
210 249
44 250
210 250
251 252
250 253
252 254
255 256
252 257
255 258
149 260
149 261
151 262
154 262
113 263
114 263
115 263
133 265
264 265
266 268
74 269
77 269
264 271
270 271
10 272
274 275
144 277
276 277
64 279
76 281
274 281
280 281
276 282
280 283
282 283
177 285
195 285
258 288
286 289
287 289
290 291
185 292
186 292
288 293
290 293
287 294
287 295
50 296
297 298
94 300
300 301
233 302
298 302
300 303
303 305
304 305
306 307
6 308
16 311
310 311
260 312
310 313
312 315
314 315
309 316
314 316
5 317
315 317
54 318
182 318
154 319
182 319
314 321
322 323
324 325
325 326
326 327
327 328
328 329
123 331
141 333
330 333
331 333
332 335
142 336
323 336
176 338
18 339
69 339
59 340
82 341
217 341
261 342
315 342
92 343
99 343
187 344
312 344
278 345
279 345
192 346
60 347
17 348
193 348
63 350
115 350
262 352
351 352
151 354
351 354
353 356
355 356
354 358
357 358
60 359
347 359
347 360
355 360
357 360
163 361
361 362
187 363
147 365
364 366
365 366
197 367
267 368
362 369
368 369
369 370
370 371
210 372
249 372
296 372
25 373
25 374
374 375
373 376
375 378
376 378
377 380
379 380
381 382
196 383
196 384
136 385
132 387
139 388
387 388
189 389
386 389
233 390
228 391
233 391
195 392
23 393
175 393
384 393
383 394
337 396
395 396
71 398
148 398
397 398
71 399
72 400
399 400
401 402
377 403
378 403
403 404
405 406
248 407
381 407
200 408
201 408
202 408
204 408
247 408
248 409
405 409
408 411
408 413
81 414
275 414
197 415
406 415
404 416
247 417
417 418
419 420
419 422
421 422
420 425
313 426
423 426
424 426
425 426
150 427
284 427
284 428
423 428
424 428
427 428
322 429
429 430
429 431
72 432
431 432
432 433
400 434
433 435
434 435
432 437
434 438
424 439
402 440
2 441
440 442
441 442
440 443
443 444
444 445
445 446
446 447
447 448
8 449
448 449
112 451
450 452
450 453
60 455
451 455
452 455
321 458
454 459
457 459
144 460
143 461
143 463
460 463
128 464
131 466
461 466
464 467
466 467
468 469
468 471
470 471
345 472
462 472
470 473
270 474
473 475
474 475
476 477
476 478
395 480
480 481
465 482
481 482
465 483
476 483
479 484
477 486
18 487
24 487
140 488
324 488
487 489
24 490
49 490
487 492
489 492
491 492
290 494
491 494
493 494
87 495
292 495
293 495
494 495
185 496
162 499
499 500
500 501
501 502
161 503
167 503
502 503
19 504
165 504
240 505
411 506
497 506
505 506
145 507
145 508
508 509
507 510
509 510
199 511
7 512
235 512
239 512
242 512
509 512
511 512
199 513
199 514
509 514
308 515
513 516
515 516
327 517
216 518
219 518
222 518
517 518
84 519
22 524
498 525
505 525
412 526
525 526
521 528
522 528
273 529
529 530
329 533
520 533
532 533
272 534
311 534
430 535
535 536
536 537
531 538
532 538
537 538
107 539
106 540
284 540
140 541
531 541
536 542
541 542
261 543
458 543
93 544
95 544
458 545
539 545
150 546
545 546
304 547
305 547
307 547
124 548
127 548
330 548
401 549
452 550
452 551
454 551
130 552
143 553
552 553
553 554
553 555
554 555
80 556
553 556
131 557
557 558
125 559
558 560
559 560
554 561
559 561
12 562
55 562
392 563
64 564
451 564
455 564
245 565
70 566
54 567
318 568
567 568
194 569
346 569
385 571
570 571
570 573
572 573
386 574
386 575
572 575
571 576
574 577
576 577
58 579
61 579
571 579
576 580
549 582
582 583
112 586
549 587
582 588
583 588
584 588
148 589
588 589
268 590
472 590
590 591
586 592
591 592
197 593
569 593
35 594
73 594
253 594
266 594
586 595
594 595
268 596
269 596
590 597
212 598
566 599
598 599
83 600
173 600
301 602
306 602
601 602
22 603
602 603
163 604
194 605
605 606
606 607
416 608
607 608
339 609
587 610
588 610
259 611
499 612
611 612
162 613
201 613
42 614
259 614
613 614
519 615
178 616
601 616
617 618
618 619
101 620
619 620
149 621
321 621
214 622
622 623
39 624
241 624
309 624
508 624
623 624
104 625
617 626
625 626
370 627
371 627
24 628
50 628
296 628
82 629
587 629
592 630
595 630
469 631
146 632
410 633
631 633
20 634
238 634
584 635
232 636
353 637
473 637
278 638
462 638
472 638
233 639
233 640
640 641
434 642
641 642
585 643
643 644
635 645
639 645
635 647
643 648
647 648
4 649
245 649
267 650
604 650
267 651
147 652
651 652
530 653
652 653
20 654
523 654
634 654
147 655
634 655
632 656
651 656
604 657
632 657
169 658
653 659
658 659
297 660
660 661
661 662
636 663
662 663
522 664
527 664
71 665
520 665
22 666
196 666
615 666
456 667
462 667
126 668
334 668
335 668
337 668
332 669
333 669
349 670
436 670
437 670
438 670
561 670
153 671
159 671
580 672
671 672
251 673
179 674
294 674
673 674
354 675
358 676
675 676
293 677
674 677
677 678
678 679
252 680
256 680
676 680
679 680
299 682
410 682
681 683
299 684
681 684
396 685
683 686
685 686
646 687
670 688
320 690
523 690
527 690
467 691
486 692
691 692
456 693
692 693
349 694
689 694
484 695
638 695
456 697
478 697
479 697
696 697
485 698
696 698
390 699
391 699
486 700
691 700
390 701
646 701
75 702
701 702
687 703
688 703
689 703
702 703
110 704
320 704
529 704
230 705
231 705
232 705
578 706
343 707
578 707
421 708
137 709
379 709
83 710
600 711
578 712
184 713
713 714
137 715
581 715
706 715
712 715
714 715
709 716
715 716
16 718
717 718
5 719
6 719
363 719
717 720
719 720
68 721
715 721
111 722
367 722
723 724
205 725
338 725
498 725
724 725
497 726
724 726
392 727
563 727
723 727
393 728
723 728
173 729
196 729
338 729
723 730
725 730
236 731
111 732
581 732
412 733
525 734
704 734
403 735
409 735
365 736
627 736
428 737
708 738
273 739
418 739
704 740
521 741
690 741
740 741
32 742
741 742
32 743
236 744
731 744
743 744
565 745
746 747
747 748
748 749
102 750
737 750
749 750
754 751
745 751
737 752
738 753
752 753
